(declare-fun a75 () (Array (_ BitVec 1) (_ BitVec 4)))
(declare-fun a78 () (Array (_ BitVec 11) (_ BitVec 6)))
(assert
(let (($e18 (_ bv0 2)))
(let (($e19 (_ bv0 11)))
(let (($e32 (_ bv0 4)))
(let (($e83 (select a78        $e19 )))
(let (($e91 (   extract      $e83)))
(let (($e92 (store a75 $e91        $e32 )))
(let (($e93 (select $e92 false)))
(let (($e185 (select a75 true       )))
(let (($e452 (store a75 false $e32)))
(let (($e453 (select $e452 $e91 )))
(let (($e454 (concat $e18 $e453)))
(let (($e459      (bvult $e83  $e454)         ))
(let (($e488      (bvult $e185 $e93 )         ))
             (bvult $e488 $e459)
                                                                                                                                                                                                                                                                                                                                                                                                                                                                                                                                                                                                                                       )                            )    )))                                                                                                                                                                                                                                                                          )                                                                                           )))       )                                    )            ))                 )
